N = 4;
Capacity = 10;
nbVehicles = 4;
maxVisitsPerCustomer = 2;
Demand = [4, 8, 1, 5];
Distance = [|
  0, 54, 66, 44, 34
| 54, 0, 85, 97, 48
| 66, 85, 0, 89, 40
| 44, 97, 89, 0, 71
| 34, 48, 40, 71, 0
|];
